%chk=SAS.chk
$nprocshare=8
# hf/6-31g* geom=connectivity iop(6/50=1) pop=mk

SAS with out OH

0 1
 N                 47.60100000   51.81300000   51.35000000
 C                 46.67500000   52.94500000   51.46300000
 H                 47.25400000   53.83100000   51.68100000
 C                 45.97000000   53.15700000   50.12000000
 H                 46.71600000   53.46100000   49.38900000
 H                 45.51400000   52.22800000   49.78600000
 O                 44.95900000   54.13700000   50.20300000
 C                 44.82000000   54.74900000   48.94300000
 C                 45.67500000   52.78400000   52.60500000
 O                 45.69440053   53.58439878   53.57585322
 O                 44.81000000   56.04000000   48.84800000
 C                 44.68200000   53.89100000   47.69000000
 H                 44.58600000   54.53600000   46.81700000
 H                 43.79600000   53.26200000   47.77700000
 H                 45.56600000   53.26200000   47.58200000
 H                 47.70366504   51.37585231   52.24351093
 C                 47.66604160   50.55347402   50.59484181
 O                 48.59736898   49.73444808   50.80790608
 C                 46.47227260   50.51203764   49.62283431
 H                 45.57566657   50.76731075   50.14803263
 H                 46.63315498   51.21267847   48.83029454
 H                 46.37855968   49.52733344   49.21482016
 N                 44.68932581   51.69396929   52.57065687
 H                 43.77526103   52.06590066   52.73237461
 C                 45.00992561   50.71035324   53.61498211
 H                 44.33822960   50.83304860   54.43879660
 H                 44.90958224   49.72216591   53.21709140
 H                 46.01532670   50.85988008   53.94921313

 1 2 1.0 16 1.0 17 1.0
 2 4 1.0 9 1.0 3 1.0
 3
 4 5 1.0 6 1.0 7 1.0
 5
 6
 7 8 1.0
 8 12 1.0 11 1.5
 9 10 2.0 23 1.0
 10
 11
 12 14 1.0 15 1.0 13 1.0
 13
 14
 15
 16
 17 18 2.0 19 1.0
 18
 19 20 1.0 21 1.0 22 1.0
 20
 21
 22
 23 24 1.0 25 1.0
 24
 25 26 1.0 27 1.0 28 1.0
 26
 27
 28

/users/acebrian/Acetylated/SAS.gesp




